words_hard_train/6262.qaiger
aag 156 24 0 1 132
2
4
12
14
18
28
30
34
38
42
46
50
60
68
84
100
168
172
174
178
182
242
262
282
312
6 2 4
8 3 5
10 7 9
16 12 14
20 16 18
22 11 20
24 10 21
26 23 25
32 29 31
36 32 35
40 36 39
44 40 43
48 44 47
52 48 51
54 27 53
56 26 52
58 55 57
62 28 61
64 28 30
66 65 33
70 67 68
72 66 69
74 71 73
76 62 74
78 77 73
80 33 34
82 81 37
86 83 84
88 82 85
90 87 89
92 79 90
94 93 89
96 37 38
98 97 41
102 99 100
104 98 101
106 103 105
108 95 106
110 109 105
112 41 42
114 113 45
116 115 13
118 114 12
120 117 119
122 111 120
124 123 119
126 13 15
128 127 17
130 45 46
132 131 49
134 128 133
136 129 132
138 135 137
140 125 138
142 141 137
144 17 19
146 145 21
148 49 50
150 149 53
152 146 151
154 147 150
156 153 155
158 143 156
160 159 155
162 59 161
164 58 160
166 163 165
170 167 168
176 173 175
180 176 179
184 181 182
186 180 183
188 185 187
190 94 107
192 191 109
194 189 193
196 78 91
198 197 93
200 199 178
202 177 178
204 203 181
206 204 198
208 77 177
210 172 174
212 63 75
214 211 213
216 63 74
218 217 174
220 29 60
222 219 221
224 215 223
226 208 225
228 207 227
230 201 229
232 195 230
234 188 192
236 233 235
238 110 121
240 239 123
244 187 242
246 186 243
248 245 247
250 241 249
252 237 251
254 240 248
256 253 255
258 124 139
260 259 141
264 247 262
266 246 263
268 265 267
270 261 269
272 257 271
274 260 268
276 273 275
278 142 157
280 279 159
284 267 282
286 266 283
288 285 287
290 280 288
292 276 291
294 281 289
296 293 295
298 296 286
300 171 299
302 297 287
304 166 169
306 303 305
308 300 307
310 170 298
312 309 311
i0 1 x2[7]
i1 2 y1[7]
i2 2 y1[4]
i3 2 y1[5]
i4 2 y1[6]
i5 1 x2[0]
i6 1 x2[1]
i7 1 x2[2]
i8 1 x2[3]
i9 1 x2[4]
i10 1 x2[5]
i11 1 x2[6]
i12 2 y1[0]
i13 2 y1[1]
i14 2 y1[2]
i15 2 y1[3]
i16 1 x1[7]
i17 1 x1[0]
i18 1 x1[1]
i19 1 x1[2]
i20 1 x1[3]
i21 1 x1[4]
i22 1 x1[5]
i23 1 x1[6]
o0 bv[0]
c
simplified
  <=
    1 x1
    subtract
      unary minus
        1 x2
      add
        -239
        2 y1
