words_hard_train/6262.qaiger.qdimacs
p cnf 156 397
a 89 1 121 131 141 14 15 17 19 84 21 86 23 87 25 91 0
e 2 3 4 5 6 7 8 9 10 11 12 13 16 18 20 22 24 26 27 28 29 30 31 32 33 34 35 36 37 38 39 40 41 42 43 44 45 46 47 48 49 50 51 52 53 54 55 56 57 58 59 60 61 62 63 64 65 66 67 68 69 70 71 72 73 74 75 76 77 78 79 80 81 82 83 85 88 90 92 93 94 95 96 97 98 99 100 101 102 103 104 105 106 107 108 109 110 111 112 113 114 115 116 117 118 119 120 122 123 124 125 126 127 128 129 130 132 133 134 135 136 137 138 139 140 142 143 144 145 146 147 148 149 150 151 152 153 154 155 156 0
-1 -2 3 0
1 -3 0
2 -3 0
1 2 4 0
-1 -4 0
-2 -4 0
3 4 5 0
-3 -5 0
-4 -5 0
-6 -7 8 0
6 -8 0
7 -8 0
-8 -9 10 0
8 -10 0
9 -10 0
5 -10 11 0
-5 -11 0
10 -11 0
-5 10 12 0
5 -12 0
-10 -12 0
11 12 13 0
-11 -13 0
-12 -13 0
14 15 16 0
-14 -16 0
-15 -16 0
-16 17 18 0
16 -18 0
-17 -18 0
-18 19 20 0
18 -20 0
-19 -20 0
-20 21 22 0
20 -22 0
-21 -22 0
-22 23 24 0
22 -24 0
-23 -24 0
-24 25 26 0
24 -26 0
-25 -26 0
13 26 27 0
-13 -27 0
-26 -27 0
-13 -26 28 0
13 -28 0
26 -28 0
27 28 29 0
-27 -29 0
-28 -29 0
-14 30 31 0
14 -31 0
-30 -31 0
-14 -15 32 0
14 -32 0
15 -32 0
32 16 33 0
-32 -33 0
-16 -33 0
33 -34 35 0
-33 -35 0
34 -35 0
-33 34 36 0
33 -36 0
-34 -36 0
35 36 37 0
-35 -37 0
-36 -37 0
-31 -37 38 0
31 -38 0
37 -38 0
38 36 39 0
-38 -39 0
-36 -39 0
16 -17 40 0
-16 -40 0
17 -40 0
40 18 41 0
-40 -41 0
-18 -41 0
41 -42 43 0
-41 -43 0
42 -43 0
-41 42 44 0
41 -44 0
-42 -44 0
43 44 45 0
-43 -45 0
-44 -45 0
39 -45 46 0
-39 -46 0
45 -46 0
46 44 47 0
-46 -47 0
-44 -47 0
18 -19 48 0
-18 -48 0
19 -48 0
48 20 49 0
-48 -49 0
-20 -49 0
49 -50 51 0
-49 -51 0
50 -51 0
-49 50 52 0
49 -52 0
-50 -52 0
51 52 53 0
-51 -53 0
-52 -53 0
47 -53 54 0
-47 -54 0
53 -54 0
54 52 55 0
-54 -55 0
-52 -55 0
20 -21 56 0
-20 -56 0
21 -56 0
56 22 57 0
-56 -57 0
-22 -57 0
57 6 58 0
-57 -58 0
-6 -58 0
-57 -6 59 0
57 -59 0
6 -59 0
58 59 60 0
-58 -60 0
-59 -60 0
55 -60 61 0
-55 -61 0
60 -61 0
61 59 62 0
-61 -62 0
-59 -62 0
6 7 63 0
-6 -63 0
-7 -63 0
63 8 64 0
-63 -64 0
-8 -64 0
22 -23 65 0
-22 -65 0
23 -65 0
65 24 66 0
-65 -66 0
-24 -66 0
-64 66 67 0
64 -67 0
-66 -67 0
64 -66 68 0
-64 -68 0
66 -68 0
67 68 69 0
-67 -69 0
-68 -69 0
62 -69 70 0
-62 -70 0
69 -70 0
70 68 71 0
-70 -71 0
-68 -71 0
8 9 72 0
-8 -72 0
-9 -72 0
72 10 73 0
-72 -73 0
-10 -73 0
24 -25 74 0
-24 -74 0
25 -74 0
74 26 75 0
-74 -75 0
-26 -75 0
-73 75 76 0
73 -76 0
-75 -76 0
73 -75 77 0
-73 -77 0
75 -77 0
76 77 78 0
-76 -78 0
-77 -78 0
71 -78 79 0
-71 -79 0
78 -79 0
79 77 80 0
-79 -80 0
-77 -80 0
29 80 81 0
-29 -81 0
-80 -81 0
-29 -80 82 0
29 -82 0
80 -82 0
81 82 83 0
-81 -83 0
-82 -83 0
83 -84 85 0
-83 -85 0
84 -85 0
86 87 88 0
-86 -88 0
-87 -88 0
-88 89 90 0
88 -90 0
-89 -90 0
90 -91 92 0
-90 -92 0
91 -92 0
-90 91 93 0
90 -93 0
-91 -93 0
92 93 94 0
-92 -94 0
-93 -94 0
-47 53 95 0
47 -95 0
-53 -95 0
95 54 96 0
-95 -96 0
-54 -96 0
94 96 97 0
-94 -97 0
-96 -97 0
-39 45 98 0
39 -98 0
-45 -98 0
98 46 99 0
-98 -99 0
-46 -99 0
99 -89 100 0
-99 -100 0
89 -100 0
88 -89 101 0
-88 -101 0
89 -101 0
101 90 102 0
-101 -102 0
-90 -102 0
-102 -99 103 0
102 -103 0
99 -103 0
38 88 104 0
-38 -104 0
-88 -104 0
-86 -87 105 0
86 -105 0
87 -105 0
31 37 106 0
-31 -106 0
-37 -106 0
105 106 107 0
-105 -107 0
-106 -107 0
31 -37 108 0
-31 -108 0
37 -108 0
108 -87 109 0
-108 -109 0
87 -109 0
14 -30 110 0
-14 -110 0
30 -110 0
109 110 111 0
-109 -111 0
-110 -111 0
107 111 112 0
-107 -112 0
-111 -112 0
-104 112 113 0
104 -113 0
-112 -113 0
103 113 114 0
-103 -114 0
-113 -114 0
100 114 115 0
-100 -115 0
-114 -115 0
97 -115 116 0
-97 -116 0
115 -116 0
-94 -96 117 0
94 -117 0
96 -117 0
116 117 118 0
-116 -118 0
-117 -118 0
-55 60 119 0
55 -119 0
-60 -119 0
119 61 120 0
-119 -120 0
-61 -120 0
93 -121 122 0
-93 -122 0
121 -122 0
-93 121 123 0
93 -123 0
-121 -123 0
122 123 124 0
-122 -124 0
-123 -124 0
120 124 125 0
-120 -125 0
-124 -125 0
118 125 126 0
-118 -126 0
-125 -126 0
-120 -124 127 0
120 -127 0
124 -127 0
126 127 128 0
-126 -128 0
-127 -128 0
-62 69 129 0
62 -129 0
-69 -129 0
129 70 130 0
-129 -130 0
-70 -130 0
123 -131 132 0
-123 -132 0
131 -132 0
-123 131 133 0
123 -133 0
-131 -133 0
132 133 134 0
-132 -134 0
-133 -134 0
130 134 135 0
-130 -135 0
-134 -135 0
128 135 136 0
-128 -136 0
-135 -136 0
-130 -134 137 0
130 -137 0
134 -137 0
136 137 138 0
-136 -138 0
-137 -138 0
-71 78 139 0
71 -139 0
-78 -139 0
139 79 140 0
-139 -140 0
-79 -140 0
133 -141 142 0
-133 -142 0
141 -142 0
-133 141 143 0
133 -143 0
-141 -143 0
142 143 144 0
-142 -144 0
-143 -144 0
-140 -144 145 0
140 -145 0
144 -145 0
-138 145 146 0
138 -146 0
-145 -146 0
140 144 147 0
-140 -147 0
-144 -147 0
146 147 148 0
-146 -148 0
-147 -148 0
-148 -143 149 0
148 -149 0
143 -149 0
85 149 150 0
-85 -150 0
-149 -150 0
148 143 151 0
-148 -151 0
-143 -151 0
-83 84 152 0
83 -152 0
-84 -152 0
151 152 153 0
-151 -153 0
-152 -153 0
-150 153 154 0
150 -154 0
-153 -154 0
-85 -149 155 0
85 -155 0
149 -155 0
154 155 156 0
-154 -156 0
-155 -156 0
156 0
